N = 8;
H = 5;
T = 2;

avail = array3d(1..N, 1..H, 1..T, [0, 0, 2, 2, 7, 8, 3, 0, 5, 6, 2, 7, 10, 2, 1, 0, 4, 4, 2, 4, 6, 7, 6, 3, 4, 8, 7, 3, 2, 3, 0, 2, 6, 2, 3, 3, 7, 10, 8, 10, 9, 7, 6, 3, 7, 10, 3, 9, 0, 6, 6, 1, 4, 5, 0, 3, 7, 2, 10, 5, 10, 8, 5, 4, 7, 10, 3, 0, 7, 7, 9, 8, 0, 1, 1, 0, 3, 9, 2, 2]);

r = array2d(1..H, 1..T, [1, 1, 1, 1, 1, 1, 1, 1, 1, 1]);
